\* Problem: Unknown *\

Maximize
 obj: + xp_0_0 + xp_1_0 + xp_1_1 + xp_2_0 + xp_2_1 + xp_3_0 + xp_3_1
 + xp_4_0 + xp_5_0 + xp_6_0 + xp_7_0 + xp_8_0 + xp_9_0 + xp_9_1
 + xp_10_0 + xp_11_0 + xp_11_1 + xp_12_0 + xp_12_1 + xp_13_0 + xp_13_1
 + xp_13_2 + xp_14_0 + xp_14_1 + xp_15_0 + xp_16_0 + xp_17_0 + xp_17_1
 + xp_18_0 + xp_18_1 + xp_18_2 + xp_19_0 + xp_19_1 + xp_20_0 + xp_21_0
 + xp_22_0 + xp_22_1 + xp_23_0 + xp_24_0 + xp_24_1 + xp_24_2 + xp_25_0
 + xp_26_0 + xp_26_1 + xp_27_0 + xp_27_1 + xp_28_0 + xp_28_1 + xp_29_0
 + xp_30_0 + xp_30_1 + xp_31_0 + xp_32_0 + xp_32_1 + xp_33_0 + xp_34_0
 + xp_34_1 + xp_35_0 + xp_36_0 + xp_37_0 + xp_38_0 + xp_39_0 + xp_40_0
 + xp_40_1 + xp_40_2 + xp_41_0 + xp_41_1 + xp_42_0 + xp_42_1 + xp_42_2
 + xp_43_0 + xp_44_0 + xp_44_1 + xp_45_0 + xp_45_1 + xp_46_0 + xp_47_0
 + xp_48_0 + xp_48_1 + xp_49_0 + xp_50_0 + xp_50_1 + xp_51_0 + xp_52_0
 + xp_53_0 + xp_53_1 + xp_54_0 + xp_55_0 + xp_56_0 + xp_57_0 + xp_57_1
 + xp_58_0 + xp_58_1 + xp_58_2 + xp_59_0 + xp_60_0 + xp_60_1 + xp_61_0
 + xp_61_1 + xp_62_0 + xp_63_0 + xp_63_1 + xp_64_0 + xp_65_0 + xp_66_0
 + xp_67_0 + xp_67_1 + xp_68_0 + xp_68_1 + xp_68_2 + xp_69_0 + xp_70_0
 + xp_71_0 + xp_72_0 + xp_73_0 + xp_74_0 + xp_75_0 + xp_76_0 + xp_77_0
 + xp_77_1 + xp_78_0 + xp_78_1 + xp_78_2 + xp_78_3 + xp_79_0 + xp_79_1
 + xp_80_0 + xp_80_1 + xp_81_0 + xp_81_1 + xp_81_2 + xp_81_3 + xp_82_0
 + xp_82_1 + xp_83_0 + xp_83_1 + xp_84_0 + xp_85_0 + xp_85_1 + xp_85_2
 + xp_85_3 + xp_86_0 + xp_86_1 + xp_87_0 + xp_88_0 + xp_88_1 + xp_89_0
 + xp_90_0 + xp_90_1 + xp_90_2 + xp_91_0 + xp_91_1 + xp_91_2 + xp_92_0
 + xp_92_1 + xp_93_0 + xp_94_0 + xp_94_1 + xp_94_2 + xp_95_0 + xp_95_1
 + xp_95_2 + xp_96_0 + xp_96_1 + xp_97_0 + xp_98_0 + xp_98_1 + xp_98_2
 + xp_99_0 + xp_99_1 + xp_99_2 + xp_100_0 + xp_101_0 + xp_102_0
 + xp_103_0 + xp_104_0 + xp_104_1 + xp_105_0 + xp_105_1 + xp_106_0
 + xp_106_1 + xp_106_2 + xp_107_0 + xp_108_0 + xp_108_1 + xp_108_2
 + xp_109_0 + xp_109_1 + xp_110_0 + xp_111_0 + xp_111_1 + xp_112_0
 + xp_112_1 + xp_113_0 + xp_114_0 + xp_115_0 + xp_115_1 + xp_116_0
 + xp_116_1 + xp_117_0 + xp_118_0 + xp_119_0 + xp_119_1 + xp_119_2
 + xp_120_0 + xp_120_1 + xp_121_0 + xp_122_0 + xp_123_0 + xp_124_0
 + xp_125_0 + xp_125_1 + xp_126_0 + xp_126_1 + xp_126_2 + xp_127_0
 + xp_127_1 + xp_128_0 + xp_128_1 + xp_128_2 + xp_129_0 + xp_129_1
 + xp_130_0 + xp_131_0 + xp_131_1 + xp_131_2

Subject To
 r_1: + xp_128_2 + xp_128_1 + xp_122_0 + xp_121_0 + xp_108_1 + xp_107_0
 + xp_78_3 + xp_67_1 + xp_57_1 + xp_40_2 + xp_40_1 + xp_25_0 + xp_22_1
 + xp_18_2 + xp_18_1 + xp_16_0 + xp_13_2 + xp_13_1 + xp_4_0
 <= 39648.3971044467
 r_2: + xp_131_2 + xp_131_1 + xp_127_1 + xp_126_1 + xp_120_1 + xp_120_0
 + xp_94_2 + xp_94_1 + xp_93_0 + xp_90_1 + xp_85_3 + xp_85_2 + xp_85_1
 + xp_85_0 + xp_77_1 + xp_75_0 + xp_71_0 + xp_66_0 + xp_65_0 + xp_61_1
 + xp_55_0 + xp_52_0 + xp_48_1 + xp_48_0 + xp_42_2 + xp_42_1 + xp_32_0
 + xp_28_1 + xp_28_0 + xp_24_2 + xp_24_0 + xp_19_1 + xp_19_0 + xp_12_1
 + xp_1_1 <= 34867.2244452528
 r_3: + xp_114_0 + xp_106_2 + xp_105_1 + xp_95_2 + xp_91_2 + xp_85_2
 + xp_83_1 + xp_76_0 + xp_68_2 + xp_58_2 + xp_41_1 + xp_34_0
 <= 37341.8621179815
 r_4: + xp_119_2 + xp_117_0 + xp_111_1 + xp_104_1 + xp_95_1 + xp_95_0
 + xp_91_1 + xp_91_0 + xp_88_1 + xp_84_0 + xp_82_1 + xp_81_3 + xp_81_2
 + xp_79_1 + xp_79_0 + xp_46_0 + xp_44_1 + xp_43_0 + xp_40_2 + xp_40_1
 + xp_40_0 + xp_34_1 + xp_27_1 <= 35686.9315461944
 r_5: + xp_130_0 + xp_119_2 + xp_111_1 + xp_104_1 + xp_99_0 + xp_88_1
 + xp_82_1 + xp_81_3 + xp_81_2 + xp_44_1 + xp_27_1 + xp_7_0 + xp_2_0
 <= 37341.8621179815
 r_6: + xp_126_2 + xp_119_0 + xp_114_0 + xp_95_2 + xp_92_1 + xp_91_2
 + xp_83_1 + xp_83_0 + xp_81_0 + xp_70_0 + xp_68_2 + xp_68_1 + xp_58_2
 + xp_58_1 + xp_53_0 + xp_48_1 + xp_45_0 + xp_34_0 + xp_32_1 + xp_30_1
 + xp_18_2 <= 39177.1539206196
 r_7: + xp_119_1 + xp_112_1 + xp_104_0 + xp_88_0 + xp_82_0 + xp_81_1
 + xp_78_2 + xp_53_1 + xp_50_1 + xp_45_1 + xp_44_0 + xp_27_0 + xp_18_1
 + xp_18_0 + xp_3_1 <= 35686.9315461944
 r_8: + xp_131_2 + xp_131_1 + xp_127_1 + xp_126_1 + xp_120_1 + xp_120_0
 + xp_118_0 + xp_103_0 + xp_94_2 + xp_94_1 + xp_90_1 + xp_77_1 + xp_71_0
 + xp_61_1 + xp_55_0 + xp_42_2 + xp_42_1 + xp_32_0 + xp_24_2 + xp_24_0
 + xp_12_1 + xp_1_1 <= 39648.3971044467
 r_9: + xp_131_0 + xp_127_0 + xp_122_0 + xp_108_1 + xp_78_3 + xp_77_0
 + xp_67_1 + xp_57_1 + xp_42_0 + xp_33_0 + xp_32_1 + xp_24_1
 <= 39648.3971044467
 r_10: + xp_112_1 + xp_111_1 + xp_106_0 + xp_99_0 + xp_98_0 + xp_94_1
 + xp_88_1 + xp_88_0 + xp_85_0 + xp_78_2 + xp_50_1 + xp_26_0 + xp_24_0
 + xp_8_0 + xp_7_0 + xp_3_1 + xp_2_0 <= 39177.1539206196
 r_11: + xp_119_0 + xp_112_0 + xp_111_0 + xp_95_2 + xp_91_2 + xp_81_0
 + xp_78_3 + xp_78_1 + xp_78_0 + xp_59_0 + xp_53_0 + xp_50_0 + xp_49_0
 + xp_45_0 + xp_34_0 + xp_18_2 + xp_4_0 + xp_3_0 <= 36228.508042152
 r_12: + xp_129_1 + xp_128_1 + xp_128_0 + xp_123_0 + xp_119_1 + xp_117_0
 + xp_112_1 + xp_111_1 + xp_108_2 + xp_101_0 + xp_95_0 + xp_91_1
 + xp_82_1 + xp_82_0 + xp_81_3 + xp_81_1 + xp_80_1 + xp_79_1 + xp_78_2
 + xp_78_0 + xp_73_0 + xp_63_1 + xp_60_1 + xp_50_1 + xp_46_0 + xp_45_1
 + xp_44_1 + xp_44_0 + xp_40_1 + xp_40_0 + xp_18_1 + xp_18_0 + xp_17_1
 + xp_15_0 + xp_14_0 + xp_13_1 + xp_13_0 + xp_9_0 <= 35760.391198044
 r_13: + xp_129_0 + xp_128_2 + xp_120_1 + xp_119_2 + xp_109_1 + xp_100_0
 + xp_96_1 + xp_95_1 + xp_91_0 + xp_90_0 + xp_81_2 + xp_80_0 + xp_79_0
 + xp_68_0 + xp_63_0 + xp_60_0 + xp_53_1 + xp_40_2 + xp_34_1 + xp_31_0
 + xp_30_0 + xp_17_0 + xp_13_2 + xp_9_1 <= 36228.508042152
 r_14: + xp_131_2 + xp_131_1 + xp_131_0 + xp_126_2 + xp_125_1 + xp_125_0
 + xp_124_0 + xp_115_1 + xp_115_0 + xp_106_2 + xp_106_1 + xp_99_2
 + xp_99_1 + xp_98_2 + xp_98_1 + xp_94_2 + xp_94_0 + xp_92_1 + xp_86_1
 + xp_86_0 + xp_85_3 + xp_85_2 + xp_85_1 + xp_77_1 + xp_77_0 + xp_68_2
 + xp_68_1 + xp_65_0 + xp_58_2 + xp_58_1 + xp_56_0 + xp_51_0 + xp_48_1
 + xp_41_1 + xp_41_0 + xp_38_0 + xp_35_0 + xp_32_1 + xp_30_1 + xp_26_1
 + xp_24_2 + xp_24_1 + xp_20_0 + xp_19_1 + xp_19_0 + xp_12_1 + xp_12_0
 + xp_2_1 + xp_0_0 <= 35686.9315461944
 r_15: + xp_131_2 + xp_131_0 + xp_126_2 + xp_125_0 + xp_124_0 + xp_120_1
 + xp_116_0 + xp_115_0 + xp_109_1 + xp_99_2 + xp_98_1 + xp_96_1
 + xp_94_0 + xp_92_1 + xp_90_0 + xp_89_0 + xp_86_0 + xp_85_2 + xp_85_1
 + xp_77_1 + xp_77_0 + xp_68_2 + xp_68_1 + xp_68_0 + xp_65_0 + xp_58_2
 + xp_58_1 + xp_51_0 + xp_48_1 + xp_42_1 + xp_42_0 + xp_38_0 + xp_36_0
 + xp_32_1 + xp_28_0 + xp_26_1 + xp_24_2 + xp_24_1 + xp_19_1 + xp_12_0
 + xp_11_1 + xp_0_0 <= 35760.391198044
 r_16: + xp_128_0 + xp_123_0 + xp_108_2 + xp_108_0 + xp_78_2 + xp_78_1
 + xp_78_0 + xp_73_0 + xp_67_0 + xp_57_0 + xp_46_0 + xp_44_1 + xp_44_0
 + xp_40_0 + xp_22_0 + xp_18_0 + xp_13_0 + xp_6_0 <= 35760.391198044
 r_17: + xp_129_1 + xp_128_1 + xp_126_0 + xp_119_1 + xp_112_1 + xp_111_1
 + xp_109_0 + xp_97_0 + xp_95_0 + xp_91_1 + xp_90_2 + xp_81_3 + xp_81_1
 + xp_80_1 + xp_79_1 + xp_63_1 + xp_62_0 + xp_61_0 + xp_60_1 + xp_47_0
 + xp_45_1 + xp_40_1 + xp_22_1 + xp_18_1 + xp_17_1 + xp_13_1 + xp_9_0
 + xp_1_0 <= 34867.2244452528
 r_18: + xp_126_1 + xp_126_0 + xp_106_0 + xp_99_0 + xp_98_0 + xp_94_1
 + xp_92_0 + xp_85_0 + xp_68_0 + xp_58_0 + xp_48_0 + xp_32_0 + xp_30_0
 + xp_26_0 + xp_24_0 + xp_5_0 + xp_2_0 <= 36228.508042152
 r_19: + xp_131_1 + xp_125_1 + xp_116_1 + xp_115_1 + xp_110_0 + xp_108_2
 + xp_106_2 + xp_106_1 + xp_99_1 + xp_98_2 + xp_94_2 + xp_86_1 + xp_85_3
 + xp_78_0 + xp_56_0 + xp_42_2 + xp_28_1 + xp_19_0 + xp_14_0 + xp_12_1
 + xp_11_0 + xp_3_0 + xp_2_1 <= 36228.508042152
 r_20: + xp_129_0 + xp_128_2 + xp_119_2 + xp_119_0 + xp_112_0 + xp_111_0
 + xp_108_1 + xp_108_0 + xp_107_0 + xp_95_2 + xp_95_1 + xp_91_2
 + xp_91_0 + xp_81_2 + xp_81_0 + xp_80_0 + xp_79_0 + xp_78_3 + xp_78_1
 + xp_69_0 + xp_64_0 + xp_63_0 + xp_60_0 + xp_50_0 + xp_49_0 + xp_45_0
 + xp_40_2 + xp_18_2 + xp_17_0 + xp_14_1 + xp_13_2 + xp_10_0 + xp_9_1
 + xp_4_0 <= 34867.2244452528
 r_21: + xp_113_0 + xp_106_2 + xp_105_1 + xp_99_2 + xp_99_1 + xp_86_1
 + xp_86_0 + xp_85_2 + xp_83_1 + xp_77_1 + xp_77_0 + xp_68_2 + xp_65_0
 + xp_58_2 + xp_41_1 + xp_38_0 + xp_20_0 + xp_2_1 + xp_0_0
 <= 35686.9315461944
 r_22: + xp_126_2 + xp_124_0 + xp_106_1 + xp_105_0 + xp_98_2 + xp_98_1
 + xp_94_2 + xp_94_0 + xp_92_1 + xp_85_3 + xp_85_1 + xp_83_0 + xp_68_1
 + xp_58_1 + xp_48_1 + xp_41_0 + xp_32_1 + xp_30_1 + xp_26_1 + xp_24_2
 + xp_24_1 <= 35686.9315461944
 r_23: + xp_128_2 + xp_128_1 + xp_128_0 + xp_119_2 + xp_119_1 + xp_117_0
 + xp_112_1 + xp_111_1 + xp_104_1 + xp_104_0 + xp_100_0 + xp_95_1
 + xp_95_0 + xp_91_1 + xp_91_0 + xp_84_0 + xp_82_1 + xp_82_0 + xp_81_3
 + xp_81_2 + xp_81_1 + xp_80_1 + xp_80_0 + xp_79_1 + xp_79_0 + xp_78_2
 + xp_73_0 + xp_60_1 + xp_60_0 + xp_53_1 + xp_50_1 + xp_46_0 + xp_45_1
 + xp_44_1 + xp_44_0 + xp_40_2 + xp_40_1 + xp_40_0 + xp_34_1 + xp_21_0
 + xp_18_1 + xp_18_0 + xp_15_0 + xp_9_1 + xp_9_0 + xp_3_1
 <= 35686.9315461944
 r_24: + xp_128_0 + xp_126_1 + xp_103_0 + xp_94_2 + xp_94_1 + xp_90_1
 + xp_61_1 + xp_40_0 + xp_39_0 + xp_22_0 + xp_18_0 + xp_13_0 + xp_12_1
 + xp_1_1 <= 39648.3971044467
 r_25: + xp_131_0 + xp_127_0 + xp_126_2 + xp_126_0 + xp_94_0 + xp_90_2
 + xp_90_0 + xp_89_0 + xp_77_0 + xp_74_0 + xp_61_0 + xp_42_0 + xp_38_0
 + xp_32_1 + xp_24_1 + xp_12_0 + xp_1_0 <= 35760.391198044
 r_26: + xp_128_2 + xp_128_1 + xp_121_0 + xp_112_1 + xp_112_0 + xp_108_1
 + xp_107_0 + xp_81_3 + xp_81_2 + xp_81_1 + xp_81_0 + xp_79_1 + xp_79_0
 + xp_78_3 + xp_67_1 + xp_64_0 + xp_60_1 + xp_60_0 + xp_57_1 + xp_47_0
 + xp_40_2 + xp_40_1 + xp_37_0 + xp_29_0 + xp_25_0 + xp_22_1 + xp_18_2
 + xp_18_1 + xp_17_1 + xp_17_0 + xp_13_2 + xp_13_1 + xp_4_0
 <= 34867.2244452528
 r_27: + xp_131_2 + xp_127_1 + xp_125_0 + xp_120_1 + xp_116_0 + xp_115_0
 + xp_108_0 + xp_99_2 + xp_98_1 + xp_96_1 + xp_92_1 + xp_86_0 + xp_85_2
 + xp_85_1 + xp_78_1 + xp_77_1 + xp_72_0 + xp_67_0 + xp_65_0 + xp_58_2
 + xp_58_1 + xp_57_0 + xp_52_0 + xp_50_0 + xp_48_1 + xp_42_1 + xp_28_0
 + xp_26_1 + xp_24_2 + xp_23_0 + xp_19_1 + xp_14_1 + xp_11_1
 <= 34867.2244452528
 r_28: + xp_131_1 + xp_126_1 + xp_126_0 + xp_125_1 + xp_120_0 + xp_116_1
 + xp_115_1 + xp_109_0 + xp_99_1 + xp_99_0 + xp_98_2 + xp_98_0 + xp_96_0
 + xp_94_2 + xp_94_1 + xp_92_0 + xp_90_2 + xp_90_1 + xp_86_1 + xp_85_3
 + xp_85_0 + xp_75_0 + xp_58_0 + xp_54_0 + xp_48_0 + xp_42_2 + xp_32_0
 + xp_28_1 + xp_26_0 + xp_24_0 + xp_19_0 + xp_12_1 + xp_11_0
 <= 34867.2244452528
 r_29: + xp_129_1 + xp_129_0 + xp_95_2 + xp_95_1 + xp_95_0 + xp_93_0
 + xp_87_0 + xp_71_0 + xp_62_0 + xp_49_0 + xp_45_1 + xp_45_0 + xp_10_0
 + xp_9_1 + xp_9_0 + xp_1_1 + xp_1_0 <= 34867.2244452528
 r_30: + xp_125_1 + xp_125_0 + xp_121_0 + xp_102_0 + xp_99_2 + xp_99_1
 + xp_99_0 + xp_96_1 + xp_96_0 + xp_92_1 + xp_92_0 + xp_57_1 + xp_57_0
 + xp_37_0 + xp_26_1 + xp_26_0 + xp_23_0 + xp_11_1 + xp_11_0
 <= 34867.2244452528

Bounds
 0 <= xp_0_0 <= 224.454878501258
 0 <= xp_1_0 <= 99.2402256102927
 0 <= xp_1_1 <= 74.4301692077195
 0 <= xp_2_0 <= 15.6294398637149
 0 <= xp_2_1 <= 93.7766391822892
 0 <= xp_3_0 <= 74.3226888189719
 0 <= xp_3_1 <= 99.0969184252959
 0 <= xp_4_0 <= 750.419117536746
 0 <= xp_5_0 <= 1030.54883740927
 0 <= xp_6_0 <= 1704.5404418474
 0 <= xp_7_0 <= 607.156716035245
 0 <= xp_8_0 <= 1436.13504104743
 0 <= xp_9_0 <= 58.8275994411915
 0 <= xp_9_1 <= 44.1206995808936
 0 <= xp_10_0 <= 52.1638153388398
 0 <= xp_11_0 <= 16.9281612277485
 0 <= xp_11_1 <= 22.570881636998
 0 <= xp_12_0 <= 1685.45371614564
 0 <= xp_12_1 <= 280.908952690939
 0 <= xp_13_0 <= 68.4829210303518
 0 <= xp_13_1 <= 102.724381545528
 0 <= xp_13_2 <= 68.4829210303518
 0 <= xp_14_0 <= 59.7770095417954
 0 <= xp_14_1 <= 149.442523854489
 0 <= xp_15_0 <= 482.389898097396
 0 <= xp_16_0 <= 2512.20182309131
 0 <= xp_17_0 <= 161.471370695158
 0 <= xp_17_1 <= 121.103528021369
 0 <= xp_18_0 <= 97.5742795847047
 0 <= xp_18_1 <= 146.361419377057
 0 <= xp_18_2 <= 97.5742795847047
 0 <= xp_19_0 <= 431.587501016025
 0 <= xp_19_1 <= 575.450001354701
 0 <= xp_20_0 <= 122.008154626661
 0 <= xp_21_0 <= 261.132561161379
 0 <= xp_22_0 <= 334.890977939426
 0 <= xp_22_1 <= 837.227444848566
 0 <= xp_23_0 <= 49.4678489210872
 0 <= xp_24_0 <= 185.188709812131
 0 <= xp_24_1 <= 92.5943549060655
 0 <= xp_24_2 <= 46.2971774530327
 0 <= xp_25_0 <= 550.666815049314
 0 <= xp_26_0 <= 8.34764352606433
 0 <= xp_26_1 <= 6.26073264454825
 0 <= xp_27_0 <= 275.57971674887
 0 <= xp_27_1 <= 45.9299527914784
 0 <= xp_28_0 <= 453.656807505535
 0 <= xp_28_1 <= 181.462723002214
 0 <= xp_29_0 <= 2329.18959115132
 0 <= xp_30_0 <= 49.8529869807662
 0 <= xp_30_1 <= 124.632467451915
 0 <= xp_31_0 <= 181.382112710653
 0 <= xp_32_0 <= 1836.14122116978
 0 <= xp_32_1 <= 306.023536861631
 0 <= xp_33_0 <= 7669.52288335847
 0 <= xp_34_0 <= 69.4502445290803
 0 <= xp_34_1 <= 416.701467174482
 0 <= xp_35_0 <= 248.40509179385
 0 <= xp_36_0 <= 303.515661124187
 0 <= xp_37_0 <= 347.215395849152
 0 <= xp_38_0 <= 318.625612442288
 0 <= xp_39_0 <= 1497.32720904107
 0 <= xp_40_0 <= 346.328682641984
 0 <= xp_40_1 <= 230.88578842799
 0 <= xp_40_2 <= 230.88578842799
 0 <= xp_41_0 <= 65.1868557754251
 0 <= xp_41_1 <= 10.8644759625708
 0 <= xp_42_0 <= 185.242450006505
 0 <= xp_42_1 <= 123.494966671003
 0 <= xp_42_2 <= 123.494966671003
 0 <= xp_43_0 <= 468.283097074272
 0 <= xp_44_0 <= 374.085493036055
 0 <= xp_44_1 <= 62.3475821726757
 0 <= xp_45_0 <= 28.9301379712315
 0 <= xp_45_1 <= 11.5720551884926
 0 <= xp_46_0 <= 1527.98598993133
 0 <= xp_47_0 <= 836.501952224519
 0 <= xp_48_0 <= 2370.96363557789
 0 <= xp_48_1 <= 395.160605929648
 0 <= xp_49_0 <= 83.825746524073
 0 <= xp_50_0 <= 426.553836143012
 0 <= xp_50_1 <= 319.915377107259
 0 <= xp_51_0 <= 675.308239200292
 0 <= xp_52_0 <= 630.417263500041
 0 <= xp_53_0 <= 129.110816983066
 0 <= xp_53_1 <= 51.6443267932263
 0 <= xp_54_0 <= 3515.22672428213
 0 <= xp_55_0 <= 1127.97980980897
 0 <= xp_56_0 <= 91.1612830560974
 0 <= xp_57_0 <= 112.066218667507
 0 <= xp_57_1 <= 84.0496640006305
 0 <= xp_58_0 <= 3090.77771241875
 0 <= xp_58_1 <= 618.155542483751
 0 <= xp_58_2 <= 618.155542483751
 0 <= xp_59_0 <= 10130.6267382994
 0 <= xp_60_0 <= 460.822166755375
 0 <= xp_60_1 <= 184.32886670215
 0 <= xp_61_0 <= 1645.21126725872
 0 <= xp_61_1 <= 658.084506903488
 0 <= xp_62_0 <= 124.892211724722
 0 <= xp_63_0 <= 89.6117741183193
 0 <= xp_63_1 <= 35.8447096473277
 0 <= xp_64_0 <= 946.409606418012
 0 <= xp_65_0 <= 497.186364948317
 0 <= xp_66_0 <= 1598.958873301
 0 <= xp_67_0 <= 220.048182562606
 0 <= xp_67_1 <= 165.036136921954
 0 <= xp_68_0 <= 400.651062454839
 0 <= xp_68_1 <= 801.302124909677
 0 <= xp_68_2 <= 200.325531227419
 0 <= xp_69_0 <= 1635.69925285456
 0 <= xp_70_0 <= 601.200511158815
 0 <= xp_71_0 <= 67.4618573372495
 0 <= xp_72_0 <= 570.165548907943
 0 <= xp_73_0 <= 878.50887082671
 0 <= xp_74_0 <= 907.286744913882
 0 <= xp_75_0 <= 1678.96010932547
 0 <= xp_76_0 <= 1639.08488510011
 0 <= xp_77_0 <= 388.989440275723
 0 <= xp_77_1 <= 155.595776110289
 0 <= xp_78_0 <= 3806.3194438069
 0 <= xp_78_1 <= 7612.6388876138
 0 <= xp_78_2 <= 11418.9583314207
 0 <= xp_78_3 <= 3806.3194438069
 0 <= xp_79_0 <= 579.605909719608
 0 <= xp_79_1 <= 434.704432289706
 0 <= xp_80_0 <= 122.670950357272
 0 <= xp_80_1 <= 92.0032127679536
 0 <= xp_81_0 <= 106.459325054507
 0 <= xp_81_1 <= 70.9728833696714
 0 <= xp_81_2 <= 35.4864416848357
 0 <= xp_81_3 <= 35.4864416848357
 0 <= xp_82_0 <= 149.4873073498
 0 <= xp_82_1 <= 59.79492293992
 0 <= xp_83_0 <= 411.219967348354
 0 <= xp_83_1 <= 68.5366612247256
 0 <= xp_84_0 <= 847.473908575838
 0 <= xp_85_0 <= 111.188462159402
 0 <= xp_85_1 <= 111.188462159402
 0 <= xp_85_2 <= 111.188462159402
 0 <= xp_85_3 <= 55.594231079701
 0 <= xp_86_0 <= 139.939466149387
 0 <= xp_86_1 <= 23.3232443582312
 0 <= xp_87_0 <= 134.547533313882
 0 <= xp_88_0 <= 289.256596217004
 0 <= xp_88_1 <= 115.702638486802
 0 <= xp_89_0 <= 2115.01700317358
 0 <= xp_90_0 <= 14763.9092498294
 0 <= xp_90_1 <= 2952.78184996589
 0 <= xp_90_2 <= 2952.78184996589
 0 <= xp_91_0 <= 740.521965072904
 0 <= xp_91_1 <= 1481.04393014581
 0 <= xp_91_2 <= 370.260982536452
 0 <= xp_92_0 <= 54.6000374837856
 0 <= xp_92_1 <= 9.10000624729759
 0 <= xp_93_0 <= 124.265242790361
 0 <= xp_94_0 <= 161.310150112037
 0 <= xp_94_1 <= 32.2620300224074
 0 <= xp_94_2 <= 32.2620300224074
 0 <= xp_95_0 <= 41.7382176303216
 0 <= xp_95_1 <= 8.34764352606433
 0 <= xp_95_2 <= 8.34764352606433
 0 <= xp_96_0 <= 94.2603009316534
 0 <= xp_96_1 <= 15.7100501552756
 0 <= xp_97_0 <= 502.578297783822
 0 <= xp_98_0 <= 58.4155912843257
 0 <= xp_98_1 <= 58.4155912843257
 0 <= xp_98_2 <= 19.4718637614419
 0 <= xp_99_0 <= 2.23021806651289
 0 <= xp_99_1 <= 6.69065419953868
 0 <= xp_99_2 <= 6.69065419953868
 0 <= xp_100_0 <= 479.568537892771
 0 <= xp_101_0 <= 238.248195057201
 0 <= xp_102_0 <= 71.4744585171602
 0 <= xp_103_0 <= 1372.81117867697
 0 <= xp_104_0 <= 89.8356915948769
 0 <= xp_104_1 <= 35.9342766379507
 0 <= xp_105_0 <= 987.476071618661
 0 <= xp_105_1 <= 394.990428647465
 0 <= xp_106_0 <= 16.9281612277485
 0 <= xp_106_1 <= 16.9281612277485
 0 <= xp_106_2 <= 5.64272040924949
 0 <= xp_107_0 <= 428.846751102961
 0 <= xp_108_0 <= 115.65785499149
 0 <= xp_108_1 <= 578.28927495745
 0 <= xp_108_2 <= 115.65785499149
 0 <= xp_109_0 <= 658.40694806973
 0 <= xp_109_1 <= 263.362779227892
 0 <= xp_110_0 <= 127.02390610155
 0 <= xp_111_0 <= 2390.57880652433
 0 <= xp_111_1 <= 398.429801087388
 0 <= xp_112_0 <= 3188.45051569314
 0 <= xp_112_1 <= 1275.38020627726
 0 <= xp_113_0 <= 405.648900531602
 0 <= xp_114_0 <= 2286.43030982789
 0 <= xp_115_0 <= 120.378035397323
 0 <= xp_115_1 <= 90.2835265479919
 0 <= xp_116_0 <= 87.0232880893144
 0 <= xp_116_1 <= 65.2674660669858
 0 <= xp_117_0 <= 1853.0066855041
 0 <= xp_118_0 <= 3008.19694706434
 0 <= xp_119_0 <= 34.214590417989
 0 <= xp_119_1 <= 17.1072952089945
 0 <= xp_119_2 <= 8.55364760449725
 0 <= xp_120_0 <= 1773.31893394681
 0 <= xp_120_1 <= 295.553155657801
 0 <= xp_121_0 <= 72.0387305580852
 0 <= xp_122_0 <= 2169.12442220894
 0 <= xp_123_0 <= 489.976222203164
 0 <= xp_124_0 <= 131.287294855205
 0 <= xp_125_0 <= 14.8681204434193
 0 <= xp_125_1 <= 11.1510903325645
 0 <= xp_126_0 <= 3457.20522775654
 0 <= xp_126_1 <= 10371.6156832696
 0 <= xp_126_2 <= 10371.6156832696
 0 <= xp_127_0 <= 235.731362620694
 0 <= xp_127_1 <= 314.308483494259
 0 <= xp_128_0 <= 55.3255301078319
 0 <= xp_128_1 <= 165.976590323496
 0 <= xp_128_2 <= 165.976590323496
 0 <= xp_129_0 <= 26.6909632056563
 0 <= xp_129_1 <= 20.0182224042422
 0 <= xp_130_0 <= 384.896228804252
 0 <= xp_131_0 <= 313.762124851459
 0 <= xp_131_1 <= 313.762124851459
 0 <= xp_131_2 <= 104.587374950486

End
